102 5
2 2 2 2 2
0  0 0 0 0 0  20 2 7 12 17 22 27 32 37 42 47 52 57 62 67 72 77 82 87 92 97
12  1 0 0 0 0  1 3
94  0 0 1 0 0  1 4
92  0 0 0 1 0  1 5
91  0 0 0 0 1  1 6
7  0 1 0 0 0  1 102
19  0 1 0 0 0  1 8
11  0 0 0 1 0  1 9
66  0 0 0 0 1  1 10
21  0 0 1 0 0  1 11
87  1 0 0 0 0  1 102
14  0 1 0 0 0  1 13
75  1 0 0 0 0  1 14
13  0 0 0 1 0  1 15
16  0 0 0 0 1  1 16
20  0 0 1 0 0  1 102
95  0 0 1 0 0  1 18
66  0 0 0 0 1  1 19
7  1 0 0 0 0  1 20
7  0 0 0 1 0  1 21
77  0 1 0 0 0  1 102
45  0 1 0 0 0  1 23
6  0 0 0 1 0  1 24
89  0 0 0 0 1  1 25
15  1 0 0 0 0  1 26
34  0 0 1 0 0  1 102
77  0 0 0 1 0  1 28
20  0 0 1 0 0  1 29
76  1 0 0 0 0  1 30
88  0 0 0 0 1  1 31
53  0 1 0 0 0  1 102
74  0 0 1 0 0  1 33
88  0 1 0 0 0  1 34
52  1 0 0 0 0  1 35
27  0 0 0 1 0  1 36
9  0 0 0 0 1  1 102
88  0 1 0 0 0  1 38
69  0 0 0 1 0  1 39
62  1 0 0 0 0  1 40
98  0 0 0 0 1  1 41
52  0 0 1 0 0  1 102
61  0 0 1 0 0  1 43
9  0 0 0 0 1  1 44
62  1 0 0 0 0  1 45
52  0 1 0 0 0  1 46
90  0 0 0 1 0  1 102
54  0 0 1 0 0  1 48
5  0 0 0 0 1  1 49
59  0 0 0 1 0  1 50
15  0 1 0 0 0  1 51
88  1 0 0 0 0  1 102
12  1 0 0 0 0  1 53
94  0 0 1 0 0  1 54
92  0 0 0 1 0  1 55
91  0 0 0 0 1  1 56
7  0 1 0 0 0  1 102
19  0 1 0 0 0  1 58
11  0 0 0 1 0  1 59
66  0 0 0 0 1  1 60
21  0 0 1 0 0  1 61
87  1 0 0 0 0  1 102
14  0 1 0 0 0  1 63
75  1 0 0 0 0  1 64
13  0 0 0 1 0  1 65
16  0 0 0 0 1  1 66
20  0 0 1 0 0  1 102
95  0 0 1 0 0  1 68
66  0 0 0 0 1  1 69
7  1 0 0 0 0  1 70
7  0 0 0 1 0  1 71
77  0 1 0 0 0  1 102
45  0 1 0 0 0  1 73
6  0 0 0 1 0  1 74
89  0 0 0 0 1  1 75
15  1 0 0 0 0  1 76
34  0 0 1 0 0  1 102
77  0 0 0 1 0  1 78
20  0 0 1 0 0  1 79
76  1 0 0 0 0  1 80
88  0 0 0 0 1  1 81
53  0 1 0 0 0  1 102
74  0 0 1 0 0  1 83
88  0 1 0 0 0  1 84
52  1 0 0 0 0  1 85
27  0 0 0 1 0  1 86
9  0 0 0 0 1  1 102
88  0 1 0 0 0  1 88
69  0 0 0 1 0  1 89
62  1 0 0 0 0  1 90
98  0 0 0 0 1  1 91
52  0 0 1 0 0  1 102
61  0 0 1 0 0  1 93
9  0 0 0 0 1  1 94
62  1 0 0 0 0  1 95
52  0 1 0 0 0  1 96
90  0 0 0 1 0  1 102
54  0 0 1 0 0  1 98
5  0 0 0 0 1  1 99
59  0 0 0 1 0  1 100
15  0 1 0 0 0  1 101
88  1 0 0 0 0  1 102
0  0 0 0 0 0  0
